39 40
67 27 1
100 16 1
4 43 1
89 2 1
89 12 1
80 17 1
94 34 1
60 58 1
83 9 1
68 29 1
39 91 1
99 77 1
29 18 1
99 4 1
48 2 1
100 8 1
45 92 1
68 40 1
79 29 1
73 50 1
81 21 1
80 37 1
67 17 1
89 3 1
60 64 1
50 47 1
98 17 2
79 18 1
73 21 1
41 78 1
3 85 1
76 45 1
82 38 1
96 50 1
80 1 1
82 34 1
57 95 1
66 36 1
96 34 1
100 100 
100 100 
100 100 
100 100 
100 100 
100 100 
100 100 
100 100 
100 100 
100 100 
100 100 
100 100 
100 100 
100 100 
100 100 
100 100 
100 100 
100 100 
100 100 
100 100 
100 100 
100 100 
100 100 
100 100 
100 100 
100 100 
100 100 
100 100 
100 100 
100 100 
100 100 
100 100 
100 100 
100 100 
100 100 
100 100 
100 100 
100 100 
100 100 
100 100 
